\ENCODING=ISO-8859-1
\Problem name: instances

Maximize
 obj:
Subject To
 c1: 4 x1 + 19 x2 + x3 + 68 x4 + 91 x5 + 65 x6 + 30 x7 <= 115
 c2: 43 x1 + 53 x2 + 66 x3 + 74 x6 + 75 x7 + 65 x8 + 68 x9 + 2 x10 <= 335
 c3: 70 x1 + 27 x2 + 92 x3 + 81 x4 - 18 x5 + 16 x6 + 39 x7 + 3 x8 + 21 x9
     <= 282
 c4: 9 x2 + 62 x3 + 71 x4 + 55 x5 + 97 x6 + 42 x7 + 18 x8 + 16 x9 + 74 x10
     <= 175
 c5: 70 x1 + 21 x2 - 8 x3 + 68 x4 + 47 x6 + 25 x7 + 25 x8 + 28 x9 + 16 x10
     <= 258
Bounds
      x1 >= 0
      x2 >= 0
      x3 >= 0
      x4 >= 0
      x5 >= 0
      x6 >= 0
      x7 >= 0
      x8 >= 0
      x9 >= 0
      x10 >= 0
Generals
 x1  x2  x3  x4  x5  x6  x7  x8  x9  x10 
End
